db/data/1165617390287341364810666926300914566.z3.out
sat
-------------------
37.089686486
